[1638, 1606, 1272, 1404, 1320, 1420, 1206, 1206, 1136, 912, 936, 920, 790, 710, 744, 564, 208, 520, 416, 280, 166, 160, 156, 142, 138, 140, 144, 136, 134, 130, 128, 124, 124, 124, 124, 128, 126, 126, 128, 122, 122, 126, 120, 124, 124, 120, 120, 116, 118, 120, 120, 118, 116, 116, 116, 114, 120, 116, 122, 116, 116, 112, 114, 116, 116, 112, 116, 116, 114, 120, 116, 120, 116, 118, 120, 118, 118, 118, 116, 118, 118, 120, 116, 118, 114, 114, 114, 118, 116, 120, 120, 118, 118, 120, 120, 120, 118, 120, 118, 118, 120, 118, 118, 118, 118, 118, 118, 114, 122, 118, 118, 118, 120, 122, 120, 120, 118, 118, 122, 120, 120, 120, 120, 120, 120, 120, 118, 118, 120, 118, 118, 120, 120, 120, 120, 120, 120, 118, 118, 116, 118, 116, 118, 114, 116, 114, 116, 116, 114, 118, 110, 118, 118, 118, 118, 116, 116, 116, 116, 118, 118, 116, 116, 118, 116, 118, 116, 116, 118, 118, 118, 118, 116, 118, 118, 116, 118, 118, 120, 120, 118, 118, 118, 116, 116, 116, 118, 118, 116, 118, 118, 114, 116, 116, 116, 116, 114, 114, 114, 114]